Traveling Salesman Problem/TSP_generados/Aleatorio1621103248_6.tsp
NAME: Aleatorio1621103248_6.tsp
COMMENT: Randomly generated scenario
TYPE: TSP
DIMENSION: 6
EDGE_WEIGHT_TYPE: ATT
NODE_COORD_SECTION
1 15.15 44.03
2 38.7 39.95
3 17.24 40.85
4 10.41 43.63
5 22.27 11.75
6 5.92 17.24
