Traveling Salesman Problem/TSP_generados/Aleatorio1621103248_6.opt.tour
NAME: Aleatorio1621103248_6.opt.tour
COMMENT: Optimal solution for Aleatorio1621103248_6 (106.69455138282459)
TYPE: TOUR
DIMENSION: 6
TOUR_SECTION
1 4 6 5 2 3
-1
EOF
